(set-logic ALL)
(declare-const z_random0_0 String)
(declare-const z_random0_1 String)
(declare-const z_random1_0 String)
(declare-const z_random1_1 String)
(declare-const z_random1_2 String)
(declare-fun seed0_x () String)
(declare-fun seed1_x () String)
(assert (and (not (= (str.in_re (str.substr z_random1_1 0 (str.len seed0_x)) (re.++ (re.* re.allchar ) re.allchar  (re.* re.allchar ) (str.to_re (str.++ "A" (str.++ "A" "C"))) (re.* re.allchar ) (str.to_re "A") (re.* re.allchar ))) (str.in_re (str.substr z_random1_2 0 (str.len seed0_x)) (re.++ (re.* re.allchar ) re.allchar  (re.* re.allchar ) (str.to_re "A") (re.* re.allchar ) (str.to_re (str.++ "A" (str.++ "C" "A"))) (re.* re.allchar ))))) (and (not (= (str.in_re (str.substr z_random1_2 (str.indexof z_random1_2 seed1_x (str.len seed0_x)) (str.len seed1_x)) (re.++ (re.* re.allchar ) re.allchar  (re.* re.allchar ) (str.to_re (str.++ "B" (str.++ "A" (str.++ "B" "A")))) (re.* re.allchar ) re.allchar  (re.* re.allchar ))) (str.in_re seed1_x (re.++ (re.* re.allchar ) re.allchar  (re.* re.allchar ) re.allchar  (re.* re.allchar ) (str.to_re (str.++ "A" (str.++ "C" (str.substr z_random1_1 (str.indexof z_random1_1 (str.++ "C" "C") (str.len seed0_x)) (str.len (str.++ "C" "C")))))) (re.* re.allchar ))))) (not (= (str.in_re (str.substr z_random0_1 (str.len seed0_x) (str.len seed1_x)) (re.++ (re.* re.allchar ) re.allchar  (re.* re.allchar ) (str.to_re "B") (re.* re.allchar ) (str.to_re (str.++ "A" (str.++ "C" "B"))) (re.* re.allchar ))) (str.in_re seed1_x (re.++ (re.* re.allchar ) re.allchar  (re.* re.allchar ) re.allchar  (re.* re.allchar ) (str.to_re (str.++ "B" (str.++ "A" (str.substr z_random1_0 (str.indexof z_random1_0 (str.++ "B" "A") (str.len seed0_x)) (str.len (str.++ "B" "A")))))) (re.* re.allchar ))))))))
(check-sat)
(exit)